3 3 2
30 2 97 1 162 2 30 0 119 1 10 2 96 1 181 0 99 2 125 0 6 2 138 1 126 0 186 2 55 1 187 0 145 2 145 1 50 2 31 1 156 0 40 2 193 1 86 0 162 2 56 1 2 0 98 1 37 2 66 1 186 
30 0 60 1 101 0 1 2 54 0 178 2 86 1 108 0 42 2 128 0 118 2 186 0 101 2 122 0 72 2 9 1 26 0 115 1 98 2 72 1 144 0 151 2 29 0 39 1 120 0 170 1 149 0 94 2 6 1 80 2 125 
30 0 138 1 112 2 53 1 144 2 153 1 40 0 102 1 171 2 168 0 98 1 46 0 16 1 66 2 123 0 135 2 18 0 169 2 34 0 32 1 63 2 97 1 194 0 144 2 153 0 192 1 72 0 39 1 152 0 44 2 139 

-------------
